NAME          
ROWS
 N  OBJ
 L  c1
COLUMNS
    MARKER    'MARKER'                 'INTORG'
    x[1]      c1        195
    x[1]      OBJ       -226
    x[2]      c1        177
    x[2]      OBJ       -127
    x[3]      c1        123
    x[3]      OBJ       -78
    x[4]      c1        765
    x[4]      OBJ       -743
    x[5]      c1        118
    x[5]      OBJ       -175
    x[6]      c1        777
    x[6]      OBJ       -719
    x[7]      c1        429
    x[7]      OBJ       -397
    x[8]      c1        410
    x[8]      OBJ       -504
    x[9]      c1        147
    x[9]      OBJ       -200
    x[10]     c1        948
    x[10]     OBJ       -911
    x[11]     c1        866
    x[11]     OBJ       -913
    x[12]     c1        32
    x[12]     OBJ       -34
    x[13]     c1        290
    x[13]     OBJ       -237
    x[14]     c1        390
    x[14]     OBJ       -435
    x[15]     c1        433
    x[15]     OBJ       -424
    x[16]     c1        817
    x[16]     OBJ       -762
    x[17]     c1        230
    x[17]     OBJ       -301
    x[18]     c1        712
    x[18]     OBJ       -630
    x[19]     c1        688
    x[19]     OBJ       -763
    x[20]     c1        718
    x[20]     OBJ       -637
    x[21]     c1        225
    x[21]     OBJ       -264
    x[22]     c1        213
    x[22]     OBJ       -122
    x[23]     c1        637
    x[23]     OBJ       -713
    x[24]     c1        445
    x[24]     OBJ       -544
    x[25]     c1        406
    x[25]     OBJ       -329
    x[26]     c1        461
    x[26]     OBJ       -484
    x[27]     c1        192
    x[27]     OBJ       -141
    x[28]     c1        99
    x[28]     OBJ       -139
    x[29]     c1        -7
    x[29]     OBJ       -45
    x[30]     c1        868
    x[30]     OBJ       -814
    x[31]     c1        447
    x[31]     OBJ       -430
    x[32]     c1        302
    x[32]     OBJ       -284
    x[33]     c1        701
    x[33]     OBJ       -799
    x[34]     c1        162
    x[34]     OBJ       -73
    x[35]     c1        706
    x[35]     OBJ       -806
    x[36]     c1        352
    x[36]     OBJ       -424
    x[37]     c1        758
    x[37]     OBJ       -815
    x[38]     c1        559
    x[38]     OBJ       -622
    x[39]     c1        744
    x[39]     OBJ       -692
    x[40]     c1        783
    x[40]     OBJ       -726
    x[41]     c1        721
    x[41]     OBJ       -652
    x[42]     c1        671
    x[42]     OBJ       -751
    x[43]     c1        322
    x[43]     OBJ       -284
    x[44]     c1        1014
    x[44]     OBJ       -976
    x[45]     c1        849
    x[45]     OBJ       -807
    x[46]     c1        961
    x[46]     OBJ       -986
    x[47]     c1        892
    x[47]     OBJ       -966
    x[48]     c1        905
    x[48]     OBJ       -971
    x[49]     c1        289
    x[49]     OBJ       -223
    x[50]     c1        883
    x[50]     OBJ       -977
    x[51]     c1        875
    x[51]     OBJ       -846
    x[52]     c1        937
    x[52]     OBJ       -938
    x[53]     c1        653
    x[53]     OBJ       -637
    x[54]     c1        411
    x[54]     OBJ       -439
    x[55]     c1        1065
    x[55]     OBJ       -994
    x[56]     c1        243
    x[56]     OBJ       -204
    x[57]     c1        242
    x[57]     OBJ       -305
    x[58]     c1        798
    x[58]     OBJ       -806
    x[59]     c1        398
    x[59]     OBJ       -377
    x[60]     c1        749
    x[60]     OBJ       -751
    x[61]     c1        485
    x[61]     OBJ       -467
    x[62]     c1        653
    x[62]     OBJ       -553
    x[63]     c1        411
    x[63]     OBJ       -397
    x[64]     c1        749
    x[64]     OBJ       -797
    x[65]     c1        732
    x[65]     OBJ       -806
    x[66]     c1        578
    x[66]     OBJ       -525
    x[67]     c1        463
    x[67]     OBJ       -390
    x[68]     c1        714
    x[68]     OBJ       -622
    x[69]     c1        274
    x[69]     OBJ       -206
    x[70]     c1        138
    x[70]     OBJ       -135
    x[71]     c1        91
    x[71]     OBJ       -112
    x[72]     c1        678
    x[72]     OBJ       -666
    x[73]     c1        57
    x[73]     OBJ       -113
    x[74]     c1        151
    x[74]     OBJ       -184
    x[75]     c1        795
    x[75]     OBJ       -764
    x[76]     c1        800
    x[76]     OBJ       -756
    x[77]     c1        705
    x[77]     OBJ       -718
    x[78]     c1        608
    x[78]     OBJ       -542
    x[79]     c1        694
    x[79]     OBJ       -666
    x[80]     c1        897
    x[80]     OBJ       -920
    x[81]     c1        224
    x[81]     OBJ       -314
    x[82]     c1        326
    x[82]     OBJ       -406
    x[83]     c1        342
    x[83]     OBJ       -383
    x[84]     c1        86
    x[84]     OBJ       -35
    x[85]     c1        650
    x[85]     OBJ       -690
    x[86]     c1        139
    x[86]     OBJ       -132
    x[87]     c1        265
    x[87]     OBJ       -256
    x[88]     c1        545
    x[88]     OBJ       -642
    x[89]     c1        162
    x[89]     OBJ       -262
    x[90]     c1        308
    x[90]     OBJ       -386
    x[91]     c1        352
    x[91]     OBJ       -347
    x[92]     c1        910
    x[92]     OBJ       -875
    x[93]     c1        71
    x[93]     OBJ       -110
    x[94]     c1        683
    x[94]     OBJ       -595
    x[95]     c1        547
    x[95]     OBJ       -504
    x[96]     c1        285
    x[96]     OBJ       -320
    x[97]     c1        547
    x[97]     OBJ       -498
    x[98]     c1        1033
    x[98]     OBJ       -944
    x[99]     c1        1082
    x[99]     OBJ       -987
    x[100]    c1        294
    x[100]    OBJ       -223
RHS
    rhs       c1        25860
RANGES
BOUNDS
 LO bounds    x[1]      0
 PL bounds    x[1]
 LO bounds    x[2]      0
 PL bounds    x[2]
 LO bounds    x[3]      0
 PL bounds    x[3]
 LO bounds    x[4]      0
 PL bounds    x[4]
 LO bounds    x[5]      0
 PL bounds    x[5]
 LO bounds    x[6]      0
 PL bounds    x[6]
 LO bounds    x[7]      0
 PL bounds    x[7]
 LO bounds    x[8]      0
 PL bounds    x[8]
 LO bounds    x[9]      0
 PL bounds    x[9]
 LO bounds    x[10]     0
 PL bounds    x[10]
 LO bounds    x[11]     0
 PL bounds    x[11]
 LO bounds    x[12]     0
 PL bounds    x[12]
 LO bounds    x[13]     0
 PL bounds    x[13]
 LO bounds    x[14]     0
 PL bounds    x[14]
 LO bounds    x[15]     0
 PL bounds    x[15]
 LO bounds    x[16]     0
 PL bounds    x[16]
 LO bounds    x[17]     0
 PL bounds    x[17]
 LO bounds    x[18]     0
 PL bounds    x[18]
 LO bounds    x[19]     0
 PL bounds    x[19]
 LO bounds    x[20]     0
 PL bounds    x[20]
 LO bounds    x[21]     0
 PL bounds    x[21]
 LO bounds    x[22]     0
 PL bounds    x[22]
 LO bounds    x[23]     0
 PL bounds    x[23]
 LO bounds    x[24]     0
 PL bounds    x[24]
 LO bounds    x[25]     0
 PL bounds    x[25]
 LO bounds    x[26]     0
 PL bounds    x[26]
 LO bounds    x[27]     0
 PL bounds    x[27]
 LO bounds    x[28]     0
 PL bounds    x[28]
 LO bounds    x[29]     0
 PL bounds    x[29]
 LO bounds    x[30]     0
 PL bounds    x[30]
 LO bounds    x[31]     0
 PL bounds    x[31]
 LO bounds    x[32]     0
 PL bounds    x[32]
 LO bounds    x[33]     0
 PL bounds    x[33]
 LO bounds    x[34]     0
 PL bounds    x[34]
 LO bounds    x[35]     0
 PL bounds    x[35]
 LO bounds    x[36]     0
 PL bounds    x[36]
 LO bounds    x[37]     0
 PL bounds    x[37]
 LO bounds    x[38]     0
 PL bounds    x[38]
 LO bounds    x[39]     0
 PL bounds    x[39]
 LO bounds    x[40]     0
 PL bounds    x[40]
 LO bounds    x[41]     0
 PL bounds    x[41]
 LO bounds    x[42]     0
 PL bounds    x[42]
 LO bounds    x[43]     0
 PL bounds    x[43]
 LO bounds    x[44]     0
 PL bounds    x[44]
 LO bounds    x[45]     0
 PL bounds    x[45]
 LO bounds    x[46]     0
 PL bounds    x[46]
 LO bounds    x[47]     0
 PL bounds    x[47]
 LO bounds    x[48]     0
 PL bounds    x[48]
 LO bounds    x[49]     0
 PL bounds    x[49]
 LO bounds    x[50]     0
 PL bounds    x[50]
 LO bounds    x[51]     0
 PL bounds    x[51]
 LO bounds    x[52]     0
 PL bounds    x[52]
 LO bounds    x[53]     0
 PL bounds    x[53]
 LO bounds    x[54]     0
 PL bounds    x[54]
 LO bounds    x[55]     0
 PL bounds    x[55]
 LO bounds    x[56]     0
 PL bounds    x[56]
 LO bounds    x[57]     0
 PL bounds    x[57]
 LO bounds    x[58]     0
 PL bounds    x[58]
 LO bounds    x[59]     0
 PL bounds    x[59]
 LO bounds    x[60]     0
 PL bounds    x[60]
 LO bounds    x[61]     0
 PL bounds    x[61]
 LO bounds    x[62]     0
 PL bounds    x[62]
 LO bounds    x[63]     0
 PL bounds    x[63]
 LO bounds    x[64]     0
 PL bounds    x[64]
 LO bounds    x[65]     0
 PL bounds    x[65]
 LO bounds    x[66]     0
 PL bounds    x[66]
 LO bounds    x[67]     0
 PL bounds    x[67]
 LO bounds    x[68]     0
 PL bounds    x[68]
 LO bounds    x[69]     0
 PL bounds    x[69]
 LO bounds    x[70]     0
 PL bounds    x[70]
 LO bounds    x[71]     0
 PL bounds    x[71]
 LO bounds    x[72]     0
 PL bounds    x[72]
 LO bounds    x[73]     0
 PL bounds    x[73]
 LO bounds    x[74]     0
 PL bounds    x[74]
 LO bounds    x[75]     0
 PL bounds    x[75]
 LO bounds    x[76]     0
 PL bounds    x[76]
 LO bounds    x[77]     0
 PL bounds    x[77]
 LO bounds    x[78]     0
 PL bounds    x[78]
 LO bounds    x[79]     0
 PL bounds    x[79]
 LO bounds    x[80]     0
 PL bounds    x[80]
 LO bounds    x[81]     0
 PL bounds    x[81]
 LO bounds    x[82]     0
 PL bounds    x[82]
 LO bounds    x[83]     0
 PL bounds    x[83]
 LO bounds    x[84]     0
 PL bounds    x[84]
 LO bounds    x[85]     0
 PL bounds    x[85]
 LO bounds    x[86]     0
 PL bounds    x[86]
 LO bounds    x[87]     0
 PL bounds    x[87]
 LO bounds    x[88]     0
 PL bounds    x[88]
 LO bounds    x[89]     0
 PL bounds    x[89]
 LO bounds    x[90]     0
 PL bounds    x[90]
 LO bounds    x[91]     0
 PL bounds    x[91]
 LO bounds    x[92]     0
 PL bounds    x[92]
 LO bounds    x[93]     0
 PL bounds    x[93]
 LO bounds    x[94]     0
 PL bounds    x[94]
 LO bounds    x[95]     0
 PL bounds    x[95]
 LO bounds    x[96]     0
 PL bounds    x[96]
 LO bounds    x[97]     0
 PL bounds    x[97]
 LO bounds    x[98]     0
 PL bounds    x[98]
 LO bounds    x[99]     0
 PL bounds    x[99]
 LO bounds    x[100]    0
 PL bounds    x[100]
ENDATA
